* Source:     Pyomo MPS Writer
* Format:     Free MPS
*
NAME unknown
OBJSENSE
 MIN
ROWS
 N  x129
 E  c_e_x130_
 E  c_e_x131_
 E  c_e_x132_
 E  c_e_x133_
 E  c_e_x134_
 E  c_e_x135_
 E  c_e_x136_
COLUMNS
     x1 x129 1
     x1 c_e_x130_ 1
     x1 c_e_x131_ 1
     x1 c_e_x132_ 1
     x1 c_e_x133_ 1
     x1 c_e_x134_ 1
     x1 c_e_x135_ 1
     x1 c_e_x136_ 1
     x2 x129 1
     x2 c_e_x130_ 1
     x2 c_e_x131_ 1
     x2 c_e_x132_ 1
     x2 c_e_x133_ 1
     x2 c_e_x134_ 1
     x2 c_e_x135_ 1
     x2 c_e_x136_ 1
     x3 x129 1
     x3 c_e_x130_ 1
     x3 c_e_x131_ 1
     x3 c_e_x132_ 1
     x3 c_e_x133_ 1
     x3 c_e_x134_ 1
     x3 c_e_x135_ 1
     x3 c_e_x136_ 1
     x4 x129 1
     x4 c_e_x130_ 1
     x4 c_e_x131_ 1
     x4 c_e_x132_ 1
     x4 c_e_x133_ 1
     x4 c_e_x134_ 1
     x4 c_e_x135_ 1
     x4 c_e_x136_ 1
     x5 x129 1
     x5 c_e_x130_ 1
     x5 c_e_x131_ 1
     x5 c_e_x132_ 1
     x5 c_e_x133_ 1
     x5 c_e_x134_ 1
     x5 c_e_x135_ 1
     x5 c_e_x136_ 1
     x6 x129 1
     x6 c_e_x130_ 1
     x6 c_e_x131_ 1
     x6 c_e_x132_ 1
     x6 c_e_x133_ 1
     x6 c_e_x134_ 1
     x6 c_e_x135_ 1
     x6 c_e_x136_ 1
     x7 x129 1
     x7 c_e_x130_ 1
     x7 c_e_x131_ 1
     x7 c_e_x132_ 1
     x7 c_e_x133_ 1
     x7 c_e_x134_ 1
     x7 c_e_x135_ 1
     x7 c_e_x136_ 1
     x8 x129 1
     x8 c_e_x130_ 1
     x8 c_e_x131_ 1
     x8 c_e_x132_ 1
     x8 c_e_x133_ 1
     x8 c_e_x134_ 1
     x8 c_e_x135_ 1
     x8 c_e_x136_ 1
     x9 x129 1
     x9 c_e_x130_ 1
     x9 c_e_x131_ 1
     x9 c_e_x132_ 1
     x9 c_e_x133_ 1
     x9 c_e_x134_ 1
     x9 c_e_x135_ 1
     x9 c_e_x136_ 1
     x10 x129 1
     x10 c_e_x130_ 1
     x10 c_e_x131_ 1
     x10 c_e_x132_ 1
     x10 c_e_x133_ 1
     x10 c_e_x134_ 1
     x10 c_e_x135_ 1
     x10 c_e_x136_ 1
     x11 x129 1
     x11 c_e_x130_ 1
     x11 c_e_x131_ 1
     x11 c_e_x132_ 1
     x11 c_e_x133_ 1
     x11 c_e_x134_ 1
     x11 c_e_x135_ 1
     x11 c_e_x136_ 1
     x12 x129 1
     x12 c_e_x130_ 1
     x12 c_e_x131_ 1
     x12 c_e_x132_ 1
     x12 c_e_x133_ 1
     x12 c_e_x134_ 1
     x12 c_e_x135_ 1
     x12 c_e_x136_ 1
     x13 x129 1
     x13 c_e_x130_ 1
     x13 c_e_x131_ 1
     x13 c_e_x132_ 1
     x13 c_e_x133_ 1
     x13 c_e_x134_ 1
     x13 c_e_x135_ 1
     x13 c_e_x136_ 1
     x14 x129 1
     x14 c_e_x130_ 1
     x14 c_e_x131_ 1
     x14 c_e_x132_ 1
     x14 c_e_x133_ 1
     x14 c_e_x134_ 1
     x14 c_e_x135_ 1
     x14 c_e_x136_ 1
     x15 x129 1
     x15 c_e_x130_ 1
     x15 c_e_x131_ 1
     x15 c_e_x132_ 1
     x15 c_e_x133_ 1
     x15 c_e_x134_ 1
     x15 c_e_x135_ 1
     x15 c_e_x136_ 1
     x16 x129 1
     x16 c_e_x130_ 1
     x16 c_e_x131_ 1
     x16 c_e_x132_ 1
     x16 c_e_x133_ 1
     x16 c_e_x134_ 1
     x16 c_e_x135_ 1
     x16 c_e_x136_ 1
     x17 x129 1
     x17 c_e_x130_ 1
     x17 c_e_x131_ 1
     x17 c_e_x132_ 1
     x17 c_e_x133_ 1
     x17 c_e_x134_ 1
     x17 c_e_x135_ 1
     x17 c_e_x136_ 1
     x18 x129 1
     x18 c_e_x130_ 1
     x18 c_e_x131_ 1
     x18 c_e_x132_ 1
     x18 c_e_x133_ 1
     x18 c_e_x134_ 1
     x18 c_e_x135_ 1
     x18 c_e_x136_ 1
     x19 x129 1
     x19 c_e_x130_ 1
     x19 c_e_x131_ 1
     x19 c_e_x132_ 1
     x19 c_e_x133_ 1
     x19 c_e_x134_ 1
     x19 c_e_x135_ 1
     x19 c_e_x136_ 1
     x20 x129 1
     x20 c_e_x130_ 1
     x20 c_e_x131_ 1
     x20 c_e_x132_ 1
     x20 c_e_x133_ 1
     x20 c_e_x134_ 1
     x20 c_e_x135_ 1
     x20 c_e_x136_ 1
     x21 x129 1
     x21 c_e_x130_ 1
     x21 c_e_x131_ 1
     x21 c_e_x132_ 1
     x21 c_e_x133_ 1
     x21 c_e_x134_ 1
     x21 c_e_x135_ 1
     x21 c_e_x136_ 1
     x22 x129 1
     x22 c_e_x130_ 1
     x22 c_e_x131_ 1
     x22 c_e_x132_ 1
     x22 c_e_x133_ 1
     x22 c_e_x134_ 1
     x22 c_e_x135_ 1
     x22 c_e_x136_ 1
     x23 x129 1
     x23 c_e_x130_ 1
     x23 c_e_x131_ 1
     x23 c_e_x132_ 1
     x23 c_e_x133_ 1
     x23 c_e_x134_ 1
     x23 c_e_x135_ 1
     x23 c_e_x136_ 1
     x24 x129 1
     x24 c_e_x130_ 1
     x24 c_e_x131_ 1
     x24 c_e_x132_ 1
     x24 c_e_x133_ 1
     x24 c_e_x134_ 1
     x24 c_e_x135_ 1
     x24 c_e_x136_ 1
     x25 x129 1
     x25 c_e_x130_ 1
     x25 c_e_x131_ 1
     x25 c_e_x132_ 1
     x25 c_e_x133_ 1
     x25 c_e_x134_ 1
     x25 c_e_x135_ 1
     x25 c_e_x136_ 1
     x26 x129 1
     x26 c_e_x130_ 1
     x26 c_e_x131_ 1
     x26 c_e_x132_ 1
     x26 c_e_x133_ 1
     x26 c_e_x134_ 1
     x26 c_e_x135_ 1
     x26 c_e_x136_ 1
     x27 x129 1
     x27 c_e_x130_ 1
     x27 c_e_x131_ 1
     x27 c_e_x132_ 1
     x27 c_e_x133_ 1
     x27 c_e_x134_ 1
     x27 c_e_x135_ 1
     x27 c_e_x136_ 1
     x28 x129 1
     x28 c_e_x130_ 1
     x28 c_e_x131_ 1
     x28 c_e_x132_ 1
     x28 c_e_x133_ 1
     x28 c_e_x134_ 1
     x28 c_e_x135_ 1
     x28 c_e_x136_ 1
     x29 x129 1
     x29 c_e_x130_ 1
     x29 c_e_x131_ 1
     x29 c_e_x132_ 1
     x29 c_e_x133_ 1
     x29 c_e_x134_ 1
     x29 c_e_x135_ 1
     x29 c_e_x136_ 1
     x30 x129 1
     x30 c_e_x130_ 1
     x30 c_e_x131_ 1
     x30 c_e_x132_ 1
     x30 c_e_x133_ 1
     x30 c_e_x134_ 1
     x30 c_e_x135_ 1
     x30 c_e_x136_ 1
     x31 x129 1
     x31 c_e_x130_ 1
     x31 c_e_x131_ 1
     x31 c_e_x132_ 1
     x31 c_e_x133_ 1
     x31 c_e_x134_ 1
     x31 c_e_x135_ 1
     x31 c_e_x136_ 1
     x32 x129 1
     x32 c_e_x130_ 1
     x32 c_e_x131_ 1
     x32 c_e_x132_ 1
     x32 c_e_x133_ 1
     x32 c_e_x134_ 1
     x32 c_e_x135_ 1
     x32 c_e_x136_ 1
     x33 x129 1
     x33 c_e_x130_ 1
     x33 c_e_x131_ 1
     x33 c_e_x132_ 1
     x33 c_e_x133_ 1
     x33 c_e_x134_ 1
     x33 c_e_x135_ 1
     x33 c_e_x136_ 1
     x34 x129 1
     x34 c_e_x130_ 1
     x34 c_e_x131_ 1
     x34 c_e_x132_ 1
     x34 c_e_x133_ 1
     x34 c_e_x134_ 1
     x34 c_e_x135_ 1
     x34 c_e_x136_ 1
     x35 x129 1
     x35 c_e_x130_ 1
     x35 c_e_x131_ 1
     x35 c_e_x132_ 1
     x35 c_e_x133_ 1
     x35 c_e_x134_ 1
     x35 c_e_x135_ 1
     x35 c_e_x136_ 1
     x36 x129 1
     x36 c_e_x130_ 1
     x36 c_e_x131_ 1
     x36 c_e_x132_ 1
     x36 c_e_x133_ 1
     x36 c_e_x134_ 1
     x36 c_e_x135_ 1
     x36 c_e_x136_ 1
     x37 x129 1
     x37 c_e_x130_ 1
     x37 c_e_x131_ 1
     x37 c_e_x132_ 1
     x37 c_e_x133_ 1
     x37 c_e_x134_ 1
     x37 c_e_x135_ 1
     x37 c_e_x136_ 1
     x38 x129 1
     x38 c_e_x130_ 1
     x38 c_e_x131_ 1
     x38 c_e_x132_ 1
     x38 c_e_x133_ 1
     x38 c_e_x134_ 1
     x38 c_e_x135_ 1
     x38 c_e_x136_ 1
     x39 x129 1
     x39 c_e_x130_ 1
     x39 c_e_x131_ 1
     x39 c_e_x132_ 1
     x39 c_e_x133_ 1
     x39 c_e_x134_ 1
     x39 c_e_x135_ 1
     x39 c_e_x136_ 1
     x40 x129 1
     x40 c_e_x130_ 1
     x40 c_e_x131_ 1
     x40 c_e_x132_ 1
     x40 c_e_x133_ 1
     x40 c_e_x134_ 1
     x40 c_e_x135_ 1
     x40 c_e_x136_ 1
     x41 x129 1
     x41 c_e_x130_ 1
     x41 c_e_x131_ 1
     x41 c_e_x132_ 1
     x41 c_e_x133_ 1
     x41 c_e_x134_ 1
     x41 c_e_x135_ 1
     x41 c_e_x136_ 1
     x42 x129 1
     x42 c_e_x130_ 1
     x42 c_e_x131_ 1
     x42 c_e_x132_ 1
     x42 c_e_x133_ 1
     x42 c_e_x134_ 1
     x42 c_e_x135_ 1
     x42 c_e_x136_ 1
     x43 x129 1
     x43 c_e_x130_ 1
     x43 c_e_x131_ 1
     x43 c_e_x132_ 1
     x43 c_e_x133_ 1
     x43 c_e_x134_ 1
     x43 c_e_x135_ 1
     x43 c_e_x136_ 1
     x44 x129 1
     x44 c_e_x130_ 1
     x44 c_e_x131_ 1
     x44 c_e_x132_ 1
     x44 c_e_x133_ 1
     x44 c_e_x134_ 1
     x44 c_e_x135_ 1
     x44 c_e_x136_ 1
     x45 x129 1
     x45 c_e_x130_ 1
     x45 c_e_x131_ 1
     x45 c_e_x132_ 1
     x45 c_e_x133_ 1
     x45 c_e_x134_ 1
     x45 c_e_x135_ 1
     x45 c_e_x136_ 1
     x46 x129 1
     x46 c_e_x130_ 1
     x46 c_e_x131_ 1
     x46 c_e_x132_ 1
     x46 c_e_x133_ 1
     x46 c_e_x134_ 1
     x46 c_e_x135_ 1
     x46 c_e_x136_ 1
     x47 x129 1
     x47 c_e_x130_ 1
     x47 c_e_x131_ 1
     x47 c_e_x132_ 1
     x47 c_e_x133_ 1
     x47 c_e_x134_ 1
     x47 c_e_x135_ 1
     x47 c_e_x136_ 1
     x48 x129 1
     x48 c_e_x130_ 1
     x48 c_e_x131_ 1
     x48 c_e_x132_ 1
     x48 c_e_x133_ 1
     x48 c_e_x134_ 1
     x48 c_e_x135_ 1
     x48 c_e_x136_ 1
     x49 x129 1
     x49 c_e_x130_ 1
     x49 c_e_x131_ 1
     x49 c_e_x132_ 1
     x49 c_e_x133_ 1
     x49 c_e_x134_ 1
     x49 c_e_x135_ 1
     x49 c_e_x136_ 1
     x50 x129 1
     x50 c_e_x130_ 1
     x50 c_e_x131_ 1
     x50 c_e_x132_ 1
     x50 c_e_x133_ 1
     x50 c_e_x134_ 1
     x50 c_e_x135_ 1
     x50 c_e_x136_ 1
     x51 x129 1
     x51 c_e_x130_ 1
     x51 c_e_x131_ 1
     x51 c_e_x132_ 1
     x51 c_e_x133_ 1
     x51 c_e_x134_ 1
     x51 c_e_x135_ 1
     x51 c_e_x136_ 1
     x52 x129 1
     x52 c_e_x130_ 1
     x52 c_e_x131_ 1
     x52 c_e_x132_ 1
     x52 c_e_x133_ 1
     x52 c_e_x134_ 1
     x52 c_e_x135_ 1
     x52 c_e_x136_ 1
     x53 x129 1
     x53 c_e_x130_ 1
     x53 c_e_x131_ 1
     x53 c_e_x132_ 1
     x53 c_e_x133_ 1
     x53 c_e_x134_ 1
     x53 c_e_x135_ 1
     x53 c_e_x136_ 1
     x54 x129 1
     x54 c_e_x130_ 1
     x54 c_e_x131_ 1
     x54 c_e_x132_ 1
     x54 c_e_x133_ 1
     x54 c_e_x134_ 1
     x54 c_e_x135_ 1
     x54 c_e_x136_ 1
     x55 x129 1
     x55 c_e_x130_ 1
     x55 c_e_x131_ 1
     x55 c_e_x132_ 1
     x55 c_e_x133_ 1
     x55 c_e_x134_ 1
     x55 c_e_x135_ 1
     x55 c_e_x136_ 1
     x56 x129 1
     x56 c_e_x130_ 1
     x56 c_e_x131_ 1
     x56 c_e_x132_ 1
     x56 c_e_x133_ 1
     x56 c_e_x134_ 1
     x56 c_e_x135_ 1
     x56 c_e_x136_ 1
     x57 x129 1
     x57 c_e_x130_ 1
     x57 c_e_x131_ 1
     x57 c_e_x132_ 1
     x57 c_e_x133_ 1
     x57 c_e_x134_ 1
     x57 c_e_x135_ 1
     x57 c_e_x136_ 1
     x58 x129 1
     x58 c_e_x130_ 1
     x58 c_e_x131_ 1
     x58 c_e_x132_ 1
     x58 c_e_x133_ 1
     x58 c_e_x134_ 1
     x58 c_e_x135_ 1
     x58 c_e_x136_ 1
     x59 x129 1
     x59 c_e_x130_ 1
     x59 c_e_x131_ 1
     x59 c_e_x132_ 1
     x59 c_e_x133_ 1
     x59 c_e_x134_ 1
     x59 c_e_x135_ 1
     x59 c_e_x136_ 1
     x60 x129 1
     x60 c_e_x130_ 1
     x60 c_e_x131_ 1
     x60 c_e_x132_ 1
     x60 c_e_x133_ 1
     x60 c_e_x134_ 1
     x60 c_e_x135_ 1
     x60 c_e_x136_ 1
     x61 x129 1
     x61 c_e_x130_ 1
     x61 c_e_x131_ 1
     x61 c_e_x132_ 1
     x61 c_e_x133_ 1
     x61 c_e_x134_ 1
     x61 c_e_x135_ 1
     x61 c_e_x136_ 1
     x62 x129 1
     x62 c_e_x130_ 1
     x62 c_e_x131_ 1
     x62 c_e_x132_ 1
     x62 c_e_x133_ 1
     x62 c_e_x134_ 1
     x62 c_e_x135_ 1
     x62 c_e_x136_ 1
     x63 x129 1
     x63 c_e_x130_ 1
     x63 c_e_x131_ 1
     x63 c_e_x132_ 1
     x63 c_e_x133_ 1
     x63 c_e_x134_ 1
     x63 c_e_x135_ 1
     x63 c_e_x136_ 1
     x64 x129 1
     x64 c_e_x130_ 1
     x64 c_e_x131_ 1
     x64 c_e_x132_ 1
     x64 c_e_x133_ 1
     x64 c_e_x134_ 1
     x64 c_e_x135_ 1
     x64 c_e_x136_ 1
     x65 x129 1
     x65 c_e_x130_ 1
     x65 c_e_x131_ 1
     x65 c_e_x132_ 1
     x65 c_e_x133_ 1
     x65 c_e_x134_ 1
     x65 c_e_x135_ 1
     x65 c_e_x136_ 1
     x66 x129 1
     x66 c_e_x130_ 1
     x66 c_e_x131_ 1
     x66 c_e_x132_ 1
     x66 c_e_x133_ 1
     x66 c_e_x134_ 1
     x66 c_e_x135_ 1
     x66 c_e_x136_ 1
     x67 x129 1
     x67 c_e_x130_ 1
     x67 c_e_x131_ 1
     x67 c_e_x132_ 1
     x67 c_e_x133_ 1
     x67 c_e_x134_ 1
     x67 c_e_x135_ 1
     x67 c_e_x136_ 1
     x68 x129 1
     x68 c_e_x130_ 1
     x68 c_e_x131_ 1
     x68 c_e_x132_ 1
     x68 c_e_x133_ 1
     x68 c_e_x134_ 1
     x68 c_e_x135_ 1
     x68 c_e_x136_ 1
     x69 x129 1
     x69 c_e_x130_ 1
     x69 c_e_x131_ 1
     x69 c_e_x132_ 1
     x69 c_e_x133_ 1
     x69 c_e_x134_ 1
     x69 c_e_x135_ 1
     x69 c_e_x136_ 1
     x70 x129 1
     x70 c_e_x130_ 1
     x70 c_e_x131_ 1
     x70 c_e_x132_ 1
     x70 c_e_x133_ 1
     x70 c_e_x134_ 1
     x70 c_e_x135_ 1
     x70 c_e_x136_ 1
     x71 x129 1
     x71 c_e_x130_ 1
     x71 c_e_x131_ 1
     x71 c_e_x132_ 1
     x71 c_e_x133_ 1
     x71 c_e_x134_ 1
     x71 c_e_x135_ 1
     x71 c_e_x136_ 1
     x72 x129 1
     x72 c_e_x130_ 1
     x72 c_e_x131_ 1
     x72 c_e_x132_ 1
     x72 c_e_x133_ 1
     x72 c_e_x134_ 1
     x72 c_e_x135_ 1
     x72 c_e_x136_ 1
     x73 x129 1
     x73 c_e_x130_ 1
     x73 c_e_x131_ 1
     x73 c_e_x132_ 1
     x73 c_e_x133_ 1
     x73 c_e_x134_ 1
     x73 c_e_x135_ 1
     x73 c_e_x136_ 1
     x74 x129 1
     x74 c_e_x130_ 1
     x74 c_e_x131_ 1
     x74 c_e_x132_ 1
     x74 c_e_x133_ 1
     x74 c_e_x134_ 1
     x74 c_e_x135_ 1
     x74 c_e_x136_ 1
     x75 x129 1
     x75 c_e_x130_ 1
     x75 c_e_x131_ 1
     x75 c_e_x132_ 1
     x75 c_e_x133_ 1
     x75 c_e_x134_ 1
     x75 c_e_x135_ 1
     x75 c_e_x136_ 1
     x76 x129 1
     x76 c_e_x130_ 1
     x76 c_e_x131_ 1
     x76 c_e_x132_ 1
     x76 c_e_x133_ 1
     x76 c_e_x134_ 1
     x76 c_e_x135_ 1
     x76 c_e_x136_ 1
     x77 x129 1
     x77 c_e_x130_ 1
     x77 c_e_x131_ 1
     x77 c_e_x132_ 1
     x77 c_e_x133_ 1
     x77 c_e_x134_ 1
     x77 c_e_x135_ 1
     x77 c_e_x136_ 1
     x78 x129 1
     x78 c_e_x130_ 1
     x78 c_e_x131_ 1
     x78 c_e_x132_ 1
     x78 c_e_x133_ 1
     x78 c_e_x134_ 1
     x78 c_e_x135_ 1
     x78 c_e_x136_ 1
     x79 x129 1
     x79 c_e_x130_ 1
     x79 c_e_x131_ 1
     x79 c_e_x132_ 1
     x79 c_e_x133_ 1
     x79 c_e_x134_ 1
     x79 c_e_x135_ 1
     x79 c_e_x136_ 1
     x80 x129 1
     x80 c_e_x130_ 1
     x80 c_e_x131_ 1
     x80 c_e_x132_ 1
     x80 c_e_x133_ 1
     x80 c_e_x134_ 1
     x80 c_e_x135_ 1
     x80 c_e_x136_ 1
     x81 x129 1
     x81 c_e_x130_ 1
     x81 c_e_x131_ 1
     x81 c_e_x132_ 1
     x81 c_e_x133_ 1
     x81 c_e_x134_ 1
     x81 c_e_x135_ 1
     x81 c_e_x136_ 1
     x82 x129 1
     x82 c_e_x130_ 1
     x82 c_e_x131_ 1
     x82 c_e_x132_ 1
     x82 c_e_x133_ 1
     x82 c_e_x134_ 1
     x82 c_e_x135_ 1
     x82 c_e_x136_ 1
     x83 x129 1
     x83 c_e_x130_ 1
     x83 c_e_x131_ 1
     x83 c_e_x132_ 1
     x83 c_e_x133_ 1
     x83 c_e_x134_ 1
     x83 c_e_x135_ 1
     x83 c_e_x136_ 1
     x84 x129 1
     x84 c_e_x130_ 1
     x84 c_e_x131_ 1
     x84 c_e_x132_ 1
     x84 c_e_x133_ 1
     x84 c_e_x134_ 1
     x84 c_e_x135_ 1
     x84 c_e_x136_ 1
     x85 x129 1
     x85 c_e_x130_ 1
     x85 c_e_x131_ 1
     x85 c_e_x132_ 1
     x85 c_e_x133_ 1
     x85 c_e_x134_ 1
     x85 c_e_x135_ 1
     x85 c_e_x136_ 1
     x86 x129 1
     x86 c_e_x130_ 1
     x86 c_e_x131_ 1
     x86 c_e_x132_ 1
     x86 c_e_x133_ 1
     x86 c_e_x134_ 1
     x86 c_e_x135_ 1
     x86 c_e_x136_ 1
     x87 x129 1
     x87 c_e_x130_ 1
     x87 c_e_x131_ 1
     x87 c_e_x132_ 1
     x87 c_e_x133_ 1
     x87 c_e_x134_ 1
     x87 c_e_x135_ 1
     x87 c_e_x136_ 1
     x88 x129 1
     x88 c_e_x130_ 1
     x88 c_e_x131_ 1
     x88 c_e_x132_ 1
     x88 c_e_x133_ 1
     x88 c_e_x134_ 1
     x88 c_e_x135_ 1
     x88 c_e_x136_ 1
     x89 x129 1
     x89 c_e_x130_ 1
     x89 c_e_x131_ 1
     x89 c_e_x132_ 1
     x89 c_e_x133_ 1
     x89 c_e_x134_ 1
     x89 c_e_x135_ 1
     x89 c_e_x136_ 1
     x90 x129 1
     x90 c_e_x130_ 1
     x90 c_e_x131_ 1
     x90 c_e_x132_ 1
     x90 c_e_x133_ 1
     x90 c_e_x134_ 1
     x90 c_e_x135_ 1
     x90 c_e_x136_ 1
     x91 x129 1
     x91 c_e_x130_ 1
     x91 c_e_x131_ 1
     x91 c_e_x132_ 1
     x91 c_e_x133_ 1
     x91 c_e_x134_ 1
     x91 c_e_x135_ 1
     x91 c_e_x136_ 1
     x92 x129 1
     x92 c_e_x130_ 1
     x92 c_e_x131_ 1
     x92 c_e_x132_ 1
     x92 c_e_x133_ 1
     x92 c_e_x134_ 1
     x92 c_e_x135_ 1
     x92 c_e_x136_ 1
     x93 x129 1
     x93 c_e_x130_ 1
     x93 c_e_x131_ 1
     x93 c_e_x132_ 1
     x93 c_e_x133_ 1
     x93 c_e_x134_ 1
     x93 c_e_x135_ 1
     x93 c_e_x136_ 1
     x94 x129 1
     x94 c_e_x130_ 1
     x94 c_e_x131_ 1
     x94 c_e_x132_ 1
     x94 c_e_x133_ 1
     x94 c_e_x134_ 1
     x94 c_e_x135_ 1
     x94 c_e_x136_ 1
     x95 x129 1
     x95 c_e_x130_ 1
     x95 c_e_x131_ 1
     x95 c_e_x132_ 1
     x95 c_e_x133_ 1
     x95 c_e_x134_ 1
     x95 c_e_x135_ 1
     x95 c_e_x136_ 1
     x96 x129 1
     x96 c_e_x130_ 1
     x96 c_e_x131_ 1
     x96 c_e_x132_ 1
     x96 c_e_x133_ 1
     x96 c_e_x134_ 1
     x96 c_e_x135_ 1
     x96 c_e_x136_ 1
     x97 x129 1
     x97 c_e_x130_ 1
     x97 c_e_x131_ 1
     x97 c_e_x132_ 1
     x97 c_e_x133_ 1
     x97 c_e_x134_ 1
     x97 c_e_x135_ 1
     x97 c_e_x136_ 1
     x98 x129 1
     x98 c_e_x130_ 1
     x98 c_e_x131_ 1
     x98 c_e_x132_ 1
     x98 c_e_x133_ 1
     x98 c_e_x134_ 1
     x98 c_e_x135_ 1
     x98 c_e_x136_ 1
     x99 x129 1
     x99 c_e_x130_ 1
     x99 c_e_x131_ 1
     x99 c_e_x132_ 1
     x99 c_e_x133_ 1
     x99 c_e_x134_ 1
     x99 c_e_x135_ 1
     x99 c_e_x136_ 1
     x100 x129 1
     x100 c_e_x130_ 1
     x100 c_e_x131_ 1
     x100 c_e_x132_ 1
     x100 c_e_x133_ 1
     x100 c_e_x134_ 1
     x100 c_e_x135_ 1
     x100 c_e_x136_ 1
     x101 x129 1
     x101 c_e_x130_ 1
     x101 c_e_x131_ 1
     x101 c_e_x132_ 1
     x101 c_e_x133_ 1
     x101 c_e_x134_ 1
     x101 c_e_x135_ 1
     x101 c_e_x136_ 1
     x102 x129 1
     x102 c_e_x130_ 1
     x102 c_e_x131_ 1
     x102 c_e_x132_ 1
     x102 c_e_x133_ 1
     x102 c_e_x134_ 1
     x102 c_e_x135_ 1
     x102 c_e_x136_ 1
     x103 x129 1
     x103 c_e_x130_ 1
     x103 c_e_x131_ 1
     x103 c_e_x132_ 1
     x103 c_e_x133_ 1
     x103 c_e_x134_ 1
     x103 c_e_x135_ 1
     x103 c_e_x136_ 1
     x104 x129 1
     x104 c_e_x130_ 1
     x104 c_e_x131_ 1
     x104 c_e_x132_ 1
     x104 c_e_x133_ 1
     x104 c_e_x134_ 1
     x104 c_e_x135_ 1
     x104 c_e_x136_ 1
     x105 x129 1
     x105 c_e_x130_ 1
     x105 c_e_x131_ 1
     x105 c_e_x132_ 1
     x105 c_e_x133_ 1
     x105 c_e_x134_ 1
     x105 c_e_x135_ 1
     x105 c_e_x136_ 1
     x106 x129 1
     x106 c_e_x130_ 1
     x106 c_e_x131_ 1
     x106 c_e_x132_ 1
     x106 c_e_x133_ 1
     x106 c_e_x134_ 1
     x106 c_e_x135_ 1
     x106 c_e_x136_ 1
     x107 x129 1
     x107 c_e_x130_ 1
     x107 c_e_x131_ 1
     x107 c_e_x132_ 1
     x107 c_e_x133_ 1
     x107 c_e_x134_ 1
     x107 c_e_x135_ 1
     x107 c_e_x136_ 1
     x108 x129 1
     x108 c_e_x130_ 1
     x108 c_e_x131_ 1
     x108 c_e_x132_ 1
     x108 c_e_x133_ 1
     x108 c_e_x134_ 1
     x108 c_e_x135_ 1
     x108 c_e_x136_ 1
     x109 x129 1
     x109 c_e_x130_ 1
     x109 c_e_x131_ 1
     x109 c_e_x132_ 1
     x109 c_e_x133_ 1
     x109 c_e_x134_ 1
     x109 c_e_x135_ 1
     x109 c_e_x136_ 1
     x110 x129 1
     x110 c_e_x130_ 1
     x110 c_e_x131_ 1
     x110 c_e_x132_ 1
     x110 c_e_x133_ 1
     x110 c_e_x134_ 1
     x110 c_e_x135_ 1
     x110 c_e_x136_ 1
     x111 x129 1
     x111 c_e_x130_ 1
     x111 c_e_x131_ 1
     x111 c_e_x132_ 1
     x111 c_e_x133_ 1
     x111 c_e_x134_ 1
     x111 c_e_x135_ 1
     x111 c_e_x136_ 1
     x112 x129 1
     x112 c_e_x130_ 1
     x112 c_e_x131_ 1
     x112 c_e_x132_ 1
     x112 c_e_x133_ 1
     x112 c_e_x134_ 1
     x112 c_e_x135_ 1
     x112 c_e_x136_ 1
     x113 x129 1
     x113 c_e_x130_ 1
     x113 c_e_x131_ 1
     x113 c_e_x132_ 1
     x113 c_e_x133_ 1
     x113 c_e_x134_ 1
     x113 c_e_x135_ 1
     x113 c_e_x136_ 1
     x114 x129 1
     x114 c_e_x130_ 1
     x114 c_e_x131_ 1
     x114 c_e_x132_ 1
     x114 c_e_x133_ 1
     x114 c_e_x134_ 1
     x114 c_e_x135_ 1
     x114 c_e_x136_ 1
     x115 x129 1
     x115 c_e_x130_ 1
     x115 c_e_x131_ 1
     x115 c_e_x132_ 1
     x115 c_e_x133_ 1
     x115 c_e_x134_ 1
     x115 c_e_x135_ 1
     x115 c_e_x136_ 1
     x116 x129 1
     x116 c_e_x130_ 1
     x116 c_e_x131_ 1
     x116 c_e_x132_ 1
     x116 c_e_x133_ 1
     x116 c_e_x134_ 1
     x116 c_e_x135_ 1
     x116 c_e_x136_ 1
     x117 x129 1
     x117 c_e_x130_ 1
     x117 c_e_x131_ 1
     x117 c_e_x132_ 1
     x117 c_e_x133_ 1
     x117 c_e_x134_ 1
     x117 c_e_x135_ 1
     x117 c_e_x136_ 1
     x118 x129 1
     x118 c_e_x130_ 1
     x118 c_e_x131_ 1
     x118 c_e_x132_ 1
     x118 c_e_x133_ 1
     x118 c_e_x134_ 1
     x118 c_e_x135_ 1
     x118 c_e_x136_ 1
     x119 x129 1
     x119 c_e_x130_ 1
     x119 c_e_x131_ 1
     x119 c_e_x132_ 1
     x119 c_e_x133_ 1
     x119 c_e_x134_ 1
     x119 c_e_x135_ 1
     x119 c_e_x136_ 1
     x120 x129 1
     x120 c_e_x130_ 1
     x120 c_e_x131_ 1
     x120 c_e_x132_ 1
     x120 c_e_x133_ 1
     x120 c_e_x134_ 1
     x120 c_e_x135_ 1
     x120 c_e_x136_ 1
     x121 x129 1
     x121 c_e_x130_ 1
     x121 c_e_x131_ 1
     x121 c_e_x132_ 1
     x121 c_e_x133_ 1
     x121 c_e_x134_ 1
     x121 c_e_x135_ 1
     x121 c_e_x136_ 1
     x122 x129 1
     x122 c_e_x130_ 1
     x122 c_e_x131_ 1
     x122 c_e_x132_ 1
     x122 c_e_x133_ 1
     x122 c_e_x134_ 1
     x122 c_e_x135_ 1
     x122 c_e_x136_ 1
     x123 x129 1
     x123 c_e_x130_ 1
     x123 c_e_x131_ 1
     x123 c_e_x132_ 1
     x123 c_e_x133_ 1
     x123 c_e_x134_ 1
     x123 c_e_x135_ 1
     x123 c_e_x136_ 1
     x124 x129 1
     x124 c_e_x130_ 1
     x124 c_e_x131_ 1
     x124 c_e_x132_ 1
     x124 c_e_x133_ 1
     x124 c_e_x134_ 1
     x124 c_e_x135_ 1
     x124 c_e_x136_ 1
     x125 x129 1
     x125 c_e_x130_ 1
     x125 c_e_x131_ 1
     x125 c_e_x132_ 1
     x125 c_e_x133_ 1
     x125 c_e_x134_ 1
     x125 c_e_x135_ 1
     x125 c_e_x136_ 1
     x126 x129 1
     x126 c_e_x130_ 1
     x126 c_e_x131_ 1
     x126 c_e_x132_ 1
     x126 c_e_x133_ 1
     x126 c_e_x134_ 1
     x126 c_e_x135_ 1
     x126 c_e_x136_ 1
     x127 x129 1
     x127 c_e_x130_ 1
     x127 c_e_x131_ 1
     x127 c_e_x132_ 1
     x127 c_e_x133_ 1
     x127 c_e_x134_ 1
     x127 c_e_x135_ 1
     x127 c_e_x136_ 1
     x128 x129 1
     x128 c_e_x130_ 1
     x128 c_e_x131_ 1
     x128 c_e_x132_ 1
     x128 c_e_x133_ 1
     x128 c_e_x134_ 1
     x128 c_e_x135_ 1
     x128 c_e_x136_ 1
RHS
     RHS c_e_x130_ 1
     RHS c_e_x131_ 1
     RHS c_e_x132_ 1
     RHS c_e_x133_ 1
     RHS c_e_x134_ 1
     RHS c_e_x135_ 1
     RHS c_e_x136_ 1
BOUNDS
 LO BOUND x1 0
 LO BOUND x2 0
 LO BOUND x3 0
 LO BOUND x4 0
 LO BOUND x5 0
 LO BOUND x6 0
 LO BOUND x7 0
 LO BOUND x8 0
 LO BOUND x9 0
 LO BOUND x10 0
 LO BOUND x11 0
 LO BOUND x12 0
 LO BOUND x13 0
 LO BOUND x14 0
 LO BOUND x15 0
 LO BOUND x16 0
 LO BOUND x17 0
 LO BOUND x18 0
 LO BOUND x19 0
 LO BOUND x20 0
 LO BOUND x21 0
 LO BOUND x22 0
 LO BOUND x23 0
 LO BOUND x24 0
 LO BOUND x25 0
 LO BOUND x26 0
 LO BOUND x27 0
 LO BOUND x28 0
 LO BOUND x29 0
 LO BOUND x30 0
 LO BOUND x31 0
 LO BOUND x32 0
 LO BOUND x33 0
 LO BOUND x34 0
 LO BOUND x35 0
 LO BOUND x36 0
 LO BOUND x37 0
 LO BOUND x38 0
 LO BOUND x39 0
 LO BOUND x40 0
 LO BOUND x41 0
 LO BOUND x42 0
 LO BOUND x43 0
 LO BOUND x44 0
 LO BOUND x45 0
 LO BOUND x46 0
 LO BOUND x47 0
 LO BOUND x48 0
 LO BOUND x49 0
 LO BOUND x50 0
 LO BOUND x51 0
 LO BOUND x52 0
 LO BOUND x53 0
 LO BOUND x54 0
 LO BOUND x55 0
 LO BOUND x56 0
 LO BOUND x57 0
 LO BOUND x58 0
 LO BOUND x59 0
 LO BOUND x60 0
 LO BOUND x61 0
 LO BOUND x62 0
 LO BOUND x63 0
 LO BOUND x64 0
 LO BOUND x65 0
 LO BOUND x66 0
 LO BOUND x67 0
 LO BOUND x68 0
 LO BOUND x69 0
 LO BOUND x70 0
 LO BOUND x71 0
 LO BOUND x72 0
 LO BOUND x73 0
 LO BOUND x74 0
 LO BOUND x75 0
 LO BOUND x76 0
 LO BOUND x77 0
 LO BOUND x78 0
 LO BOUND x79 0
 LO BOUND x80 0
 LO BOUND x81 0
 LO BOUND x82 0
 LO BOUND x83 0
 LO BOUND x84 0
 LO BOUND x85 0
 LO BOUND x86 0
 LO BOUND x87 0
 LO BOUND x88 0
 LO BOUND x89 0
 LO BOUND x90 0
 LO BOUND x91 0
 LO BOUND x92 0
 LO BOUND x93 0
 LO BOUND x94 0
 LO BOUND x95 0
 LO BOUND x96 0
 LO BOUND x97 0
 LO BOUND x98 0
 LO BOUND x99 0
 LO BOUND x100 0
 LO BOUND x101 0
 LO BOUND x102 0
 LO BOUND x103 0
 LO BOUND x104 0
 LO BOUND x105 0
 LO BOUND x106 0
 LO BOUND x107 0
 LO BOUND x108 0
 LO BOUND x109 0
 LO BOUND x110 0
 LO BOUND x111 0
 LO BOUND x112 0
 LO BOUND x113 0
 LO BOUND x114 0
 LO BOUND x115 0
 LO BOUND x116 0
 LO BOUND x117 0
 LO BOUND x118 0
 LO BOUND x119 0
 LO BOUND x120 0
 LO BOUND x121 0
 LO BOUND x122 0
 LO BOUND x123 0
 LO BOUND x124 0
 LO BOUND x125 0
 LO BOUND x126 0
 LO BOUND x127 0
 LO BOUND x128 0
ENDATA
